
Gurobi 10.0.1 (linux64) logging started Wed May 31 16:53:15 2023

Set parameter LogFile to value "logFiles/N-1L-B/N-1L-13U-20F-23V-240D-basic.log"
Gurobi Optimizer version 10.0.1 build v10.0.1rc0 (linux64)

CPU model: Intel(R) Xeon(R) Gold 5115 CPU @ 2.40GHz, instruction set [SSE2|AVX|AVX2|AVX512]
Thread count: 20 physical cores, 40 logical processors, using up to 20 threads

Optimize a model with 191379 rows, 2277322 columns and 17349777 nonzeros
Model fingerprint: 0x14908c2b
Variable types: 3413 continuous, 2273909 integer (2273909 binary)
Coefficient statistics:
  Matrix range     [1e+00, 2e+05]
  Objective range  [4e+01, 3e+07]
  Bounds range     [1e+00, 1e+00]
  RHS range        [1e+00, 3e+06]
Presolve removed 105190 rows and 44578 columns (presolve time = 5s) ...
Presolve removed 105199 rows and 44586 columns (presolve time = 10s) ...
Presolve removed 111689 rows and 44586 columns (presolve time = 15s) ...
Presolve removed 111689 rows and 80076 columns (presolve time = 20s) ...
Presolve removed 114333 rows and 116101 columns (presolve time = 25s) ...
Presolve removed 114337 rows and 116101 columns (presolve time = 30s) ...
Presolve removed 114337 rows and 116102 columns (presolve time = 35s) ...
Presolve removed 114337 rows and 116102 columns (presolve time = 40s) ...
Presolve removed 114337 rows and 116102 columns (presolve time = 45s) ...
Presolve removed 114337 rows and 116102 columns (presolve time = 50s) ...
Presolve removed 114337 rows and 116102 columns (presolve time = 55s) ...
Presolve removed 113978 rows and 115743 columns
Presolve time: 55.85s

Explored 0 nodes (0 simplex iterations) in 60.02 seconds (60.06 work units)
Thread count was 1 (of 40 available processors)

Solution count 0

Time limit reached
Best objective -, best bound -, gap -
IIS computation: initial model status unknown, solving to determine model status
Presolve removed 105190 rows and 44579 columns (presolve time = 5s) ...
Presolve removed 105199 rows and 44587 columns (presolve time = 11s) ...
Presolve removed 111689 rows and 44587 columns (presolve time = 15s) ...
Presolve removed 111689 rows and 80077 columns (presolve time = 20s) ...
Presolve removed 114333 rows and 116102 columns (presolve time = 25s) ...
Presolve removed 114337 rows and 116102 columns (presolve time = 30s) ...
Presolve removed 114337 rows and 116102 columns (presolve time = 35s) ...
Presolve removed 114337 rows and 116102 columns (presolve time = 40s) ...
Presolve removed 114337 rows and 116102 columns (presolve time = 45s) ...
Presolve removed 114337 rows and 116102 columns (presolve time = 51s) ...
Presolve removed 113978 rows and 115743 columns
Presolve time: 54.69s

Explored 0 nodes (0 simplex iterations) in 60.02 seconds (58.83 work units)
Thread count was 1 (of 40 available processors)

Solution count 0

Time limit reached
Best objective -, best bound -, gap -
IIS runtime: 60.03 seconds (58.83 work units)
